c 32 Maven
c 16 Hibernate2ndLvlCache
c 21 Server
c 26 Gatling
c 12 PostgreSQL
c 13 Cassandra
c 43 False
c 24 BackEnd
c 7 ElasticSearch
c 1 Production
c 22 MySql
c 3 MySQL
c 6 Development
c 14 Database
c 23 EhCache
c 42 jhipster
c 18 OAuth2
c 31 MicroserviceGateway
c 38 JWT
c 36 SocialLogin
c 28 InternationalizationSupport
c 25 HTTPSession
c 4 MariaDB
c 11 Base
c 2 SQL
c 29 Monolithic
c 33 Libsass
c 15 HazelCast
c 39 Uaa
c 27 UaaServer
c 19 Authentication
c 20 MicroserviceApplication
c 9 TestingFrameworks
c 37 SpringWebSockets
c 34 Protractor
c 30 PostgreSQLDev
c 35 MongoDB
c 41 Gradle
c 17 Application
c 5 MariaDBDev
c 8 Cucumber
c 40 ClusteredSession
c 10 Generator
p cnf 43 385
-1 2 0
-3 1 0
-1 2 0
-4 1 0
-5 6 0
-7 2 0
-5 6 0
-8 9 0
-4 1 0
-10 11 0
-12 1 0
-13 14 0
-15 16 0
-16 2 0
-5 6 0
-17 10 0
-18 19 0
-20 21 0
-3 1 0
-22 6 0
-23 16 0
-12 1 0
-9 11 0
-7 2 0
-2 14 0
-22 6 0
-24 11 0
-25 19 0
-22 6 0
-26 9 0
-4 1 0
-27 21 0
-6 2 0
-2 14 0
-27 21 0
-22 6 0
-22 6 0
-20 21 0
-4 1 0
-28 11 0
-16 2 0
-20 21 0
-21 10 0
-3 1 0
-29 17 0
-10 11 0
-21 10 0
-8 9 0
-23 16 0
-29 17 0
-4 1 0
-6 2 0
-26 9 0
-13 14 0
-1 2 0
-20 21 0
-30 6 0
-12 1 0
-22 6 0
-31 17 0
-30 6 0
-6 2 0
-21 10 0
-27 21 0
-5 6 0
-16 2 0
-3 1 0
-20 21 0
-3 1 0
-28 11 0
-32 24 0
-30 6 0
-15 16 0
-18 19 0
-27 21 0
-22 6 0
-12 1 0
-26 9 0
-33 11 0
-27 21 0
-34 9 0
-16 2 0
-5 6 0
-31 17 0
-29 17 0
-16 2 0
-35 14 0
-3 1 0
-20 21 0
-12 1 0
-31 17 0
-22 6 0
-5 6 0
-36 11 0
-20 21 0
-22 6 0
-9 11 0
-14 11 0
-37 11 0
-29 17 0
-3 1 0
-30 6 0
-37 11 0
-4 1 0
-6 2 0
-10 11 0
-13 14 0
-30 6 0
-32 24 0
-2 14 0
-34 9 0
-6 2 0
-17 10 0
-27 21 0
-6 2 0
-8 9 0
-7 2 0
-32 24 0
-4 1 0
-12 1 0
-20 21 0
-31 17 0
-14 11 0
-24 11 0
-5 6 0
-36 11 0
-17 10 0
-25 19 0
-38 19 0
-39 19 0
-4 1 0
-29 17 0
-31 17 0
-26 9 0
-27 21 0
-12 1 0
-5 6 0
-3 1 0
-12 1 0
-30 6 0
-31 17 0
-29 17 0
-38 19 0
-31 17 0
-22 6 0
-31 17 0
-17 10 0
-31 17 0
-27 21 0
-36 11 0
-3 1 0
-3 1 0
-6 2 0
-30 6 0
-33 11 0
-38 19 0
-29 17 0
-31 17 0
-17 10 0
-26 9 0
-40 11 0
-12 1 0
-30 6 0
-6 2 0
-31 17 0
-12 1 0
-21 10 0
-34 9 0
-1 2 0
-41 24 0
-41 24 0
-21 10 0
-3 1 0
-28 11 0
-16 2 0
-19 11 0
-5 6 0
-12 1 0
-10 11 0
-12 1 0
-23 16 0
-29 17 0
-29 17 0
-4 1 0
-26 9 0
-22 6 0
-8 9 0
-4 1 0
-4 1 0
-20 21 0
-26 9 0
-23 16 0
-30 6 0
-11 42 0
-27 21 0
-9 11 0
-34 9 0
-33 11 0
-22 6 0
-31 17 0
-20 21 0
-19 11 0
-30 6 0
-1 2 0
-20 21 0
-27 21 0
-22 6 0
-29 17 0
-39 19 0
-20 21 0
-20 21 0
-27 21 0
-1 2 0
-40 11 0
-17 10 0
-17 10 0
-17 10 0
-15 16 0
-11 42 0
-27 21 0
-8 9 0
-7 2 0
-24 11 0
-23 16 0
-27 21 0
-5 6 0
-22 6 0
-37 11 0
-12 1 0
-20 21 0
-25 19 0
-15 16 0
-29 17 0
-25 19 0
-31 17 0
-23 16 0
-3 1 0
-3 1 0
-7 2 0
-8 9 0
-27 21 0
-4 1 0
-15 16 0
-15 16 0
-31 17 0
-21 10 0
-9 11 0
-32 24 0
-33 11 0
-34 9 0
-5 6 0
-40 11 0
-30 6 0
-12 1 0
-5 6 0
-30 6 0
-5 6 0
-24 11 0
-30 6 0
-28 11 0
-21 10 0
-40 11 0
-5 6 0
-37 11 0
-7 2 0
-15 16 0
-2 14 0
-35 14 0
-20 21 0
-4 1 0
-18 19 0
-31 17 0
-18 19 0
-8 9 0
-29 17 0
-26 9 0
-5 6 0
-3 1 0
-5 6 0
-41 24 0
-29 17 0
-1 2 0
-36 11 0
-7 2 0
-21 10 0
-30 6 0
-3 1 0
-39 19 0
-30 6 0
-35 14 0
-16 2 0
-19 11 0
-27 21 0
-1 2 0
-34 9 0
-29 17 0
-12 1 0
-30 6 0
-34 9 0
-23 16 0
-22 6 0
-7 2 0
-4 1 0
-8 9 0
-3 1 0
-34 9 0
-20 21 0
-14 11 0
-35 14 0
-38 19 0
-4 1 0
-16 2 0
-39 19 0
-27 21 0
-29 17 0
-12 1 0
-19 11 0
-29 17 0
-41 24 0
-4 1 0
-14 11 0
-15 16 0
-23 16 0
-31 17 0
-13 14 0
-22 6 0
42 0
-9 26 0
-2 1 0
-2 6 0
-1 3 4 12 0
-3 -12 0
-3 -4 0
-4 -12 0
-6 30 5 22 0
-30 -5 0
-30 -22 0
-5 -22 0
-11 10 0
-24 41 32 0
-41 -32 0
-21 20 27 0
-20 -27 0
-14 2 13 35 0
-13 -35 0
-2 -35 0
-2 -13 0
-19 25 39 18 38 0
-39 -18 0
-18 -38 0
-25 -18 0
-25 -38 0
-25 -39 0
-39 -38 0
-17 31 29 0
-31 -29 0
-42 11 0
-16 15 23 0
-15 -23 0
-11 9 0
-10 21 17 0
-21 -17 0
43 42 0
-9 8 0
-18 36 20 2 35 0
21 34 0
-27 39 0
-33 17 0
18 36 20 2 35 13 0
-12 30 0
-21 -34 0
-20 38 39 0
-31 38 39 0
-29 38 25 18 0
-3 22 0
-21 24 0
-21 19 0
-17 24 0
-17 19 0
-37 17 0
-40 17 0
-4 5 0
-36 25 38 0
-36 29 0
-36 2 35 0
